c File: instances/38_0.45_1.col
c
c Description: Random graph of size 38 vertices and P(0.44999999999999996) of edges between any two vertices.
p col 38 703
e 1 2
e 1 3
e 1 7
e 1 10
e 1 13
e 1 16
e 1 17
e 1 20
e 1 22
e 1 23
e 1 24
e 1 25
e 1 27
e 1 30
e 1 31
e 1 33
e 1 38
e 2 4
e 2 7
e 2 11
e 2 13
e 2 14
e 2 20
e 2 22
e 2 23
e 2 25
e 2 31
e 2 32
e 2 33
e 2 35
e 2 36
e 2 38
e 3 6
e 3 8
e 3 10
e 3 14
e 3 15
e 3 16
e 3 19
e 3 20
e 3 24
e 3 25
e 3 27
e 3 29
e 3 30
e 3 33
e 3 36
e 3 38
e 4 6
e 4 7
e 4 9
e 4 13
e 4 15
e 4 23
e 4 24
e 4 26
e 4 30
e 4 34
e 4 35
e 4 37
e 5 9
e 5 15
e 5 19
e 5 20
e 5 21
e 5 26
e 5 30
e 5 33
e 5 34
e 5 36
e 5 38
e 6 8
e 6 9
e 6 10
e 6 12
e 6 15
e 6 19
e 6 21
e 6 26
e 6 28
e 6 31
e 6 32
e 6 33
e 6 34
e 6 36
e 7 11
e 7 14
e 7 16
e 7 17
e 7 18
e 7 21
e 7 23
e 7 24
e 7 25
e 7 26
e 7 27
e 7 28
e 7 33
e 7 35
e 7 37
e 7 38
e 8 10
e 8 13
e 8 15
e 8 18
e 8 19
e 8 21
e 8 23
e 8 24
e 8 25
e 8 26
e 8 27
e 8 28
e 8 29
e 8 30
e 8 31
e 8 33
e 8 34
e 8 36
e 8 38
e 9 10
e 9 11
e 9 13
e 9 15
e 9 17
e 9 18
e 9 21
e 9 23
e 9 24
e 9 26
e 9 30
e 9 32
e 9 34
e 9 35
e 9 37
e 10 11
e 10 13
e 10 14
e 10 18
e 10 19
e 10 25
e 10 29
e 10 31
e 10 35
e 11 13
e 11 15
e 11 16
e 11 17
e 11 18
e 11 20
e 11 22
e 11 23
e 11 28
e 11 29
e 11 30
e 11 33
e 11 35
e 12 13
e 12 14
e 12 16
e 12 19
e 12 20
e 12 23
e 12 24
e 12 32
e 12 34
e 12 37
e 12 38
e 13 14
e 13 15
e 13 16
e 13 17
e 13 21
e 13 22
e 13 25
e 13 27
e 13 29
e 13 30
e 13 31
e 13 33
e 13 34
e 13 35
e 13 38
e 14 15
e 14 16
e 14 19
e 14 23
e 14 24
e 14 27
e 14 30
e 14 38
e 15 16
e 15 17
e 15 21
e 15 24
e 15 30
e 15 31
e 15 33
e 15 34
e 15 36
e 15 38
e 16 17
e 16 18
e 16 21
e 16 22
e 16 24
e 16 27
e 16 28
e 16 35
e 16 36
e 17 19
e 17 23
e 17 25
e 17 27
e 17 28
e 17 32
e 17 33
e 17 34
e 17 35
e 17 38
e 18 20
e 18 24
e 18 27
e 18 28
e 18 29
e 18 31
e 18 32
e 18 34
e 18 36
e 19 22
e 19 24
e 19 26
e 19 34
e 19 35
e 20 21
e 20 22
e 20 24
e 20 25
e 20 26
e 20 28
e 20 29
e 20 32
e 20 33
e 20 35
e 20 36
e 21 22
e 21 25
e 21 27
e 21 29
e 21 33
e 21 34
e 21 35
e 21 38
e 22 23
e 22 24
e 22 25
e 22 26
e 22 27
e 22 29
e 22 31
e 22 32
e 22 33
e 22 35
e 22 36
e 22 38
e 23 24
e 23 26
e 23 28
e 23 29
e 23 30
e 23 31
e 23 32
e 23 33
e 23 34
e 23 36
e 24 25
e 24 28
e 24 29
e 24 31
e 24 38
e 25 27
e 25 33
e 25 34
e 25 37
e 26 29
e 26 32
e 26 34
e 26 37
e 27 29
e 27 31
e 27 33
e 27 37
e 28 29
e 28 32
e 28 35
e 28 36
e 28 37
e 28 38
e 29 31
e 29 33
e 29 35
e 29 38
e 30 31
e 30 32
e 30 33
e 30 37
e 31 32
e 31 35
e 32 35
e 32 36
e 33 34
e 33 36
e 33 37
e 33 38
e 34 35
e 35 36
e 35 37
e 36 37